(set-info :Origin "This instance was generated by: BanditFuzz-- an RL fuzzer for SMT solvers" )
(set-info :Author "Joe Scott, Fed Mora, Vijay Ganesh" )
(set-info :Contact "Joe Scott, joseph.scott@uwaterloo.ca")
(set-logic QF_BV)
(declare-const bool_0 Bool)
(declare-const bool_1 Bool)
(declare-const bool_2 Bool)
(declare-const bool_3 Bool)
(declare-const bool_4 Bool)
(declare-const bv_0 (_ BitVec 32))
(declare-const bv_1 (_ BitVec 32))
(declare-const bv_2 (_ BitVec 32))
(declare-const bv_3 (_ BitVec 32))
(declare-const bv_4 (_ BitVec 32))
(assert (not (bvuge (bvlshr bv_3 bv_1) (bvadd bv_4 #x107c171a ))))
(assert (bvsgt (bvurem (bvashr #x1c4c2b32  #xce2ba5df ) (bvlshr #x1f30c811  #x25f0ca16 )) (bvudiv (bvxnor bv_2 #x954df2dc ) (bvsrem bv_1 bv_0))))
(assert (bvsgt (bvsdiv (bvsub bv_2 bv_4) (bvlshr #xfda6a9ca  bv_0)) (bvand (bvxnor bv_2 bv_0) (bvadd #x9c080407  bv_3))))
(assert (bvugt (bvmul (bvor #x036534ac  #x4a68fe92 ) (bvurem bv_0 #xa648d3bb )) (bvurem (bvsmod bv_4 #xe481ac5a ) (bvor #x29eb3f2f  bv_3))))
(assert (bvugt (bvsrem (bvurem bv_2 #xf3fbf503 ) (bvudiv #x9937ece8  #xbef31fa1 )) (bvnand (bvnand #xfcc144e5  bv_2) (bvsdiv bv_0 #xf7a532bc ))))
(check-sat)
(exit)
